p edge 228
e 0 52
e 0 53
e 0 62
e 1 4
e 1 11
e 1 51
e 1 52
e 1 143
e 1 146
e 1 201
e 1 226
e 2 144
e 2 153
e 2 154
e 3 4
e 3 67
e 3 146
e 3 211
e 3 215
e 4 142
e 4 143
e 4 146
e 4 215
e 5 142
e 5 143
e 5 145
e 5 201
e 6 9
e 6 10
e 6 46
e 6 47
e 6 53
e 6 57
e 6 99
e 6 101
e 6 139
e 7 8
e 7 29
e 7 61
e 7 103
e 7 138
e 8 61
e 9 10
e 9 14
e 9 57
e 9 82
e 9 107
e 9 212
e 10 53
e 10 62
e 10 66
e 10 212
e 11 51
e 11 53
e 11 136
e 11 140
e 11 226
e 12 159
e 12 210
e 12 213
e 12 225
e 13 16
e 13 27
e 13 61
e 13 82
e 13 119
e 13 159
e 13 214
e 13 225
e 14 82
e 14 107
e 14 133
e 14 194
e 15 16
e 15 18
e 15 19
e 15 20
e 15 24
e 15 103
e 15 130
e 16 18
e 16 27
e 16 61
e 16 103
e 16 203
e 17 22
e 17 25
e 17 28
e 17 206
e 18 24
e 18 25
e 18 203
e 19 20
e 19 21
e 19 24
e 20 21
e 20 23
e 20 130
e 21 22
e 21 23
e 21 24
e 21 28
e 22 24
e 22 25
e 22 28
e 23 28
e 23 130
e 23 200
e 25 206
e 26 28
e 26 200
e 26 202
e 26 204
e 26 206
e 27 57
e 27 82
e 27 99
e 27 202
e 27 203
e 29 97
e 29 101
e 29 103
e 29 138
e 29 139
e 30 40
e 30 167
e 30 171
e 30 173
e 31 36
e 31 38
e 31 39
e 31 168
e 31 169
e 32 33
e 32 60
e 32 147
e 32 166
e 32 167
e 33 35
e 33 42
e 33 147
e 33 168
e 34 36
e 34 40
e 34 41
e 35 42
e 35 147
e 35 168
e 35 219
e 35 220
e 35 224
e 36 41
e 36 168
e 37 39
e 37 168
e 37 169
e 37 170
e 38 39
e 38 41
e 38 174
e 39 87
e 39 168
e 39 169
e 39 170
e 39 172
e 40 41
e 40 171
e 41 171
e 42 168
e 43 44
e 43 158
e 44 112
e 44 157
e 44 158
e 44 159
e 45 54
e 45 55
e 45 56
e 45 88
e 45 219
e 45 220
e 47 99
e 48 88
e 49 50
e 49 81
e 49 210
e 49 217
e 49 225
e 50 147
e 50 210
e 50 216
e 50 217
e 51 52
e 51 53
e 51 89
e 52 53
e 52 67
e 52 89
e 52 146
e 53 62
e 53 139
e 53 140
e 53 141
e 54 55
e 54 219
e 54 224
e 55 56
e 56 88
e 57 82
e 57 99
e 58 59
e 59 60
e 59 79
e 59 166
e 59 227
e 60 74
e 60 93
e 60 147
e 60 166
e 60 213
e 61 103
e 61 119
e 61 149
e 62 66
e 62 67
e 63 120
e 63 144
e 63 205
e 63 207
e 64 65
e 64 94
e 64 95
e 64 98
e 64 141
e 64 156
e 65 141
e 65 156
e 66 67
e 66 212
e 67 106
e 67 146
e 67 211
e 67 212
e 68 69
e 68 72
e 68 75
e 68 123
e 69 72
e 69 125
e 69 187
e 69 195
e 70 71
e 70 74
e 70 115
e 70 135
e 70 155
e 70 180
e 70 184
e 70 205
e 71 74
e 71 79
e 71 115
e 72 123
e 72 183
e 72 195
e 73 76
e 73 115
e 73 122
e 73 183
e 73 192
e 73 193
e 74 79
e 74 93
e 74 120
e 74 205
e 75 123
e 75 191
e 76 80
e 76 121
e 76 191
e 76 192
e 77 115
e 77 181
e 77 185
e 77 190
e 78 116
e 78 179
e 78 180
e 78 186
e 78 196
e 78 199
e 79 115
e 80 121
e 80 191
e 81 114
e 81 133
e 81 134
e 81 217
e 81 225
e 82 133
e 82 225
e 83 84
e 83 91
e 83 119
e 83 149
e 83 209
e 83 214
e 84 91
e 84 120
e 84 207
e 84 209
e 85 225
e 86 136
e 86 138
e 86 148
e 87 167
e 87 168
e 87 172
e 88 114
e 88 217
e 88 220
e 90 91
e 90 92
e 90 93
e 91 92
e 91 93
e 91 120
e 91 159
e 91 213
e 91 214
e 92 93
e 93 120
e 93 213
e 94 95
e 94 98
e 95 98
e 95 156
e 96 97
e 96 136
e 96 138
e 96 139
e 96 140
e 96 141
e 97 138
e 97 139
e 98 141
e 98 156
e 99 101
e 99 103
e 99 202
e 100 102
e 100 103
e 100 130
e 100 131
e 100 200
e 100 202
e 101 103
e 101 139
e 102 130
e 102 131
e 103 130
e 103 131
e 103 132
e 103 202
e 104 105
e 104 109
e 104 113
e 104 162
e 104 163
e 104 212
e 105 110
e 105 113
e 105 161
e 105 163
e 106 109
e 106 150
e 106 211
e 106 212
e 107 109
e 107 160
e 107 194
e 107 212
e 108 109
e 108 111
e 108 113
e 109 110
e 109 111
e 109 113
e 109 150
e 109 164
e 109 165
e 109 194
e 109 212
e 110 111
e 110 113
e 110 160
e 110 161
e 111 113
e 112 157
e 112 158
e 112 214
e 114 134
e 114 177
e 114 178
e 114 217
e 115 135
e 115 181
e 115 185
e 115 193
e 116 118
e 116 125
e 116 195
e 117 129
e 117 181
e 117 188
e 117 193
e 117 198
e 118 124
e 118 129
e 118 186
e 118 188
e 118 189
e 118 198
e 119 149
e 119 214
e 120 137
e 120 205
e 120 207
e 121 122
e 123 183
e 123 192
e 124 180
e 124 182
e 124 186
e 124 189
e 125 187
e 125 195
e 125 199
e 126 127
e 126 128
e 126 134
e 126 176
e 126 177
e 126 194
e 127 150
e 127 194
e 129 188
e 129 198
e 130 131
e 130 132
e 130 200
e 131 132
e 133 134
e 133 194
e 133 225
e 134 177
e 134 194
e 135 180
e 135 182
e 135 184
e 135 185
e 136 138
e 136 140
e 136 226
e 139 141
e 140 141
e 141 156
e 142 143
e 142 145
e 142 146
e 143 201
e 144 153
e 144 205
e 144 207
e 145 146
e 145 201
e 146 201
e 147 210
e 147 213
e 147 217
e 147 220
e 149 209
e 150 194
e 150 211
e 151 152
e 151 153
e 152 153
e 152 154
e 153 154
e 153 155
e 153 205
e 155 205
e 157 159
e 157 214
e 158 159
e 158 214
e 159 213
e 159 214
e 159 225
e 160 161
e 160 162
e 160 163
e 160 212
e 161 163
e 162 212
e 164 165
e 166 167
e 166 227
e 167 168
e 167 173
e 168 169
e 169 170
e 171 173
e 171 174
e 172 173
e 172 174
e 173 174
e 175 176
e 175 177
e 175 178
e 176 177
e 176 178
e 177 178
e 179 180
e 179 196
e 180 182
e 180 184
e 180 186
e 181 188
e 181 190
e 181 193
e 182 189
e 183 192
e 183 193
e 183 197
e 183 198
e 185 189
e 185 190
e 187 199
e 188 190
e 189 190
e 191 192
e 193 198
e 195 197
e 195 198
e 196 199
e 197 198
e 200 202
e 200 204
e 202 203
e 202 204
e 202 206
e 203 206
e 207 209
e 208 209
e 210 213
e 210 225
e 211 215
e 216 217
e 216 218
e 217 218
e 217 220
e 219 220
e 219 221
e 219 222
e 219 224
e 222 223
e 222 224
e 223 224
c k 1
